	169724.0	18000.0
	196087.0	15000.0
	209103.0	3000.0
	219999.0	0.0


	182000.0	15000.0
	188273.0	0.0


	164052.0	21000.0
	182000.0	15000.0
	195146.0	0.0


	194112.0	0.0
	194112.0	0.0


	194112.0	0.0


	164651.0	18000.0
	202462.0	12000.0


	193617.0	12000.0
	193617.0	12000.0


	166287.0	27000.0
	202462.0	12000.0


	193617.0	12000.0
	193617.0	12000.0


	194112.0	0.0


